20190606 100 0 0 0
20180622 30 0 0 0
20171027 90 0 0 0
20150819 60 0 0 0
20140423 60 0 0 0
20130605 70 1000 0 0
20120625 50 5000 0 0
20070618 0 1000 0 0
20051215 0 3300 0 0
20000724 390 0 0 0
19980608 0 2000 0 0
